939.5
847.5
105.5
754.5
37
661.5
197.5
289.5
569.5
383.5
476.5
686.5
61
593.5
406.5
501.5
123.5
216.5
311.5
41
939.5
847.5
754.5
104.5
196.5
661.5
288.5
569.5
381.5
476.5
218.5
65
122.5
783.5
313.5
690.5
408.5
500.5
595.5
292.5
200.5
108.5
48
385.5
570.5
478.5
1091
662.5
1033.5
847.5
755.5
940.5
316.5
221.5
126.5
410.5
61
502.5
695.5
595.5
570.5
289.5
194.5
662.5
102.5
850.5
44
755.5
942.5
421.5
326.5
477.5
514.5
382.5
1032.5
231.5
608.5
139.5
699.5
794.5
85
394.5
301.5
490.5
583.5
205.5
114.5
676.5
769.5
52
862.5
404.5
496.5
310.5
217.5
125.5
591.5
57
781.5
686.5